 987471
 194734
1669843
 669444
 240992
1110540
 716052
1572686
  87307
1880607
 924389
1901834
 582715
 614939
 777529
 826608
 512698
 833753
1836061
1073302
1382116
 571720
 783570
1294654
1093233
1512225
 437466
 679337
 905945
1948861
